15 2 
2710	2710	
789	348	349	
76	882	963	
514	32	34	
467	326	355	
324	296	305	
435	73	79	
102	348	369	
301	358	377	
104	87	90	
81	656	716	
970	876	946	
144	697	744	
469	146	156	
133	248	270	
354	47	47	
